Ir  O                                   
   1.00000000000000     
     4.2069948977054263    0.0000000000000000    0.0000000000000000
     0.0000000000000000    4.2069948977054263    0.0000000000000000
     0.0000000000000000    0.0000000000000000    4.2069948977054263
   Ir   O 
     2     6
Direct
  0.0003299999999982  0.9999099999999999  0.0004300000000015
  0.5010199999999969  0.4998399999999990  0.4998399999999990
  0.0010600000000025  0.5005099999999985  0.4996900000000011
  0.5003600000000006  0.4996900000000011  0.9996900000000011
  0.5001600000000010  0.9987199999999987  0.4988400000000013
  0.4996200000000002  0.9993199999999973  0.0002100000000027
  0.9993899999999982  0.9990499999999969  0.5009799999999984
  0.9998500000000021  0.5000500000000017  0.9990499999999969
 
  0.00000000E+00  0.00000000E+00  0.00000000E+00
  0.00000000E+00  0.00000000E+00  0.00000000E+00
  0.00000000E+00  0.00000000E+00  0.00000000E+00
  0.00000000E+00  0.00000000E+00  0.00000000E+00
  0.00000000E+00  0.00000000E+00  0.00000000E+00
  0.00000000E+00  0.00000000E+00  0.00000000E+00
  0.00000000E+00  0.00000000E+00  0.00000000E+00
  0.00000000E+00  0.00000000E+00  0.00000000E+00
