Ir  O 
 1.0000000000000000
     3.6106400000000001    0.0000000000000000    0.0000000000000000
     0.0000000000000000    3.6106400000000001    0.0000000000000000
     0.0000000000000000    0.0000000000000000    3.6106400000000001
   2   6
Cartesian
  0.0011915112000000  3.6103150423999999  0.0015525752000000
  1.8090028528000002  1.8047422976000000  1.8047422976000000
  0.0038272784000000  1.8071614264000000  1.8042007016000001
  1.8066198304000001  1.8042007016000001  3.6095207016000002
  1.8058977024000002  3.6060183808000001  1.8011316576000000
  1.8039479568000001  3.6081847647999998  0.0007582344000000
  3.6084375095999999  3.6072098920000002  1.8088584271999999
  3.6100984039999999  1.8055005319999999  3.6072098920000002
